spi.smt2
; SMT-LIBv2 description generated by Yosys 0.56+101 (git sha1 dbb977aa8, aarch64-apple-darwin23.5-clang++ 18.1.8 -fPIC -O3)
; yosys-smt2-nobv
; yosys-smt2-nomem
; yosys-smt2-stdt
; yosys-smt2-module SPISlave
(declare-datatype |SPISlave_s| ((|SPISlave_mk|
  (|SPISlave_is| Bool)
  (|SPISlave#0| Bool) ; \byte_transfered
  (|SPISlave#1| Bool) ; \en
  (|SPISlave#2| Bool) ; \en_d [0]
  (|SPISlave#3| Bool) ; \en_d [1]
  (|SPISlave#4| Bool) ; \falling_edge
  (|SPISlave#5| Bool) ; \falling_sclk_edge
  (|SPISlave#6| Bool) ; \miso
  (|SPISlave#7| Bool) ; \mosi
  (|SPISlave#8| Bool) ; \mosi_d [0]
  (|SPISlave#9| Bool) ; \mosi_d [1]
  (|SPISlave#10| Bool) ; \mosi_in
  (|SPISlave#11| Bool) ; \not_first_cycle
  (|SPISlave#12| Bool) ; \prev_en
  (|SPISlave#13| Bool) ; \prev_sclk
  (|SPISlave#14| Bool) ; \rising_edge
  (|SPISlave#15| Bool) ; \rising_sclk_edge
  (|SPISlave#16| Bool) ; \sclk
  (|SPISlave#17| Bool) ; \sclk_d [0]
  (|SPISlave#18| Bool) ; \sclk_d [1]
  (|SPISlave#19| Bool) ; \sclk_in
  (|SPISlave#20| Bool) ; \send_item [0]
  (|SPISlave#21| Bool) ; \send_item [1]
  (|SPISlave#22| Bool) ; \send_item [2]
  (|SPISlave#23| Bool) ; \send_item [3]
  (|SPISlave#24| Bool) ; \send_item [4]
  (|SPISlave#25| Bool) ; \send_item [5]
  (|SPISlave#26| Bool) ; \send_item [6]
  (|SPISlave#27| Bool) ; \send_item [7]
  (|SPISlave#29| Bool) ; \ss_in
  (|SPISlave#30| Bool) ; \st
  (|SPISlave#31| Bool) ; \start
  (|SPISlave#32| Bool) ; \stutter_d [0]
  (|SPISlave#33| Bool) ; \stutter_d [1]
  (|SPISlave#34| Bool) ; \stutter_in
  (|SPISlave#35| Bool) ; \tx_buffer [0]
  (|SPISlave#36| Bool) ; \tx_buffer [1]
  (|SPISlave#37| Bool) ; \tx_buffer [2]
  (|SPISlave#38| Bool) ; \tx_buffer [3]
  (|SPISlave#39| Bool) ; \tx_buffer [4]
  (|SPISlave#40| Bool) ; \tx_buffer [5]
  (|SPISlave#41| Bool) ; \tx_buffer [6]
  (|SPISlave#42| Bool) ; \tx_buffer [7]
  (|SPISlave#43| Bool) ; \tx_pos [0]
  (|SPISlave#44| Bool) ; \tx_pos [1]
  (|SPISlave#45| Bool) ; \tx_pos [2]
  (|SPISlave#46| Bool) ; \tx_pos [3]
  (|SPISlave#47| Bool) ; \tx_pos [4]
)))
; yosys-smt2-witness {"offset": 0, "path": ["\\byte_transfered"], "smtname": 0, "smtoffset": 0, "type": "reg", "width": 1}
; yosys-smt2-output byte_transfered 1
; yosys-smt2-register byte_transfered 1
; yosys-smt2-wire byte_transfered 1
(define-fun |SPISlave_n byte_transfered| ((state |SPISlave_s|)) Bool (|SPISlave#0| state))
; yosys-smt2-witness {"offset": 0, "path": ["\\en"], "smtname": 1, "smtoffset": 0, "type": "reg", "width": 1}
; yosys-smt2-register en 1
; yosys-smt2-wire en 1
(define-fun |SPISlave_n en| ((state |SPISlave_s|)) Bool (|SPISlave#1| state))
; yosys-smt2-witness {"offset": 0, "path": ["\\en_d"], "smtname": 2, "smtoffset": 0, "type": "reg", "width": 1}
; yosys-smt2-register en_d 2
; yosys-smt2-wire en_d 2
(define-fun |SPISlave_n en_d 0| ((state |SPISlave_s|)) Bool (|SPISlave#2| state))
(define-fun |SPISlave_n en_d 1| ((state |SPISlave_s|)) Bool (|SPISlave#3| state))
; yosys-smt2-witness {"offset": 0, "path": ["\\falling_edge"], "smtname": 4, "smtoffset": 0, "type": "reg", "width": 1}
; yosys-smt2-register falling_edge 1
; yosys-smt2-wire falling_edge 1
(define-fun |SPISlave_n falling_edge| ((state |SPISlave_s|)) Bool (|SPISlave#4| state))
; yosys-smt2-witness {"offset": 0, "path": ["\\falling_sclk_edge"], "smtname": 5, "smtoffset": 0, "type": "reg", "width": 1}
; yosys-smt2-output falling_sclk_edge 1
; yosys-smt2-register falling_sclk_edge 1
; yosys-smt2-wire falling_sclk_edge 1
(define-fun |SPISlave_n falling_sclk_edge| ((state |SPISlave_s|)) Bool (|SPISlave#5| state))
; yosys-smt2-witness {"offset": 0, "path": ["\\miso"], "smtname": 6, "smtoffset": 0, "type": "reg", "width": 1}
; yosys-smt2-output miso 1
; yosys-smt2-register miso 1
; yosys-smt2-wire miso 1
(define-fun |SPISlave_n miso| ((state |SPISlave_s|)) Bool (|SPISlave#6| state))
; yosys-smt2-witness {"offset": 0, "path": ["\\mosi"], "smtname": 7, "smtoffset": 0, "type": "reg", "width": 1}
; yosys-smt2-output mosi 1
; yosys-smt2-register mosi 1
; yosys-smt2-wire mosi 1
(define-fun |SPISlave_n mosi| ((state |SPISlave_s|)) Bool (|SPISlave#7| state))
; yosys-smt2-witness {"offset": 0, "path": ["\\mosi_d"], "smtname": 8, "smtoffset": 0, "type": "reg", "width": 1}
; yosys-smt2-register mosi_d 2
; yosys-smt2-wire mosi_d 2
(define-fun |SPISlave_n mosi_d 0| ((state |SPISlave_s|)) Bool (|SPISlave#8| state))
(define-fun |SPISlave_n mosi_d 1| ((state |SPISlave_s|)) Bool (|SPISlave#9| state))
; yosys-smt2-input mosi_in 1
; yosys-smt2-wire mosi_in 1
; yosys-smt2-witness {"offset": 0, "path": ["\\mosi_in"], "smtname": "mosi_in", "smtoffset": 0, "type": "input", "width": 1}
(define-fun |SPISlave_n mosi_in| ((state |SPISlave_s|)) Bool (|SPISlave#10| state))
; yosys-smt2-wire mosi_v 1
(define-fun |SPISlave_n mosi_v| ((state |SPISlave_s|)) Bool (|SPISlave#8| state))
; yosys-smt2-witness {"offset": 0, "path": ["\\not_first_cycle"], "smtname": 11, "smtoffset": 0, "type": "reg", "width": 1}
; yosys-smt2-register not_first_cycle 1
; yosys-smt2-wire not_first_cycle 1
(define-fun |SPISlave_n not_first_cycle| ((state |SPISlave_s|)) Bool (|SPISlave#11| state))
; yosys-smt2-witness {"offset": 0, "path": ["\\prev_en"], "smtname": 12, "smtoffset": 0, "type": "reg", "width": 1}
; yosys-smt2-register prev_en 1
; yosys-smt2-wire prev_en 1
(define-fun |SPISlave_n prev_en| ((state |SPISlave_s|)) Bool (|SPISlave#12| state))
; yosys-smt2-witness {"offset": 0, "path": ["\\prev_sclk"], "smtname": 13, "smtoffset": 0, "type": "reg", "width": 1}
; yosys-smt2-register prev_sclk 1
; yosys-smt2-wire prev_sclk 1
(define-fun |SPISlave_n prev_sclk| ((state |SPISlave_s|)) Bool (|SPISlave#13| state))
; yosys-smt2-witness {"offset": 0, "path": ["\\rising_edge"], "smtname": 14, "smtoffset": 0, "type": "reg", "width": 1}
; yosys-smt2-register rising_edge 1
; yosys-smt2-wire rising_edge 1
(define-fun |SPISlave_n rising_edge| ((state |SPISlave_s|)) Bool (|SPISlave#14| state))
; yosys-smt2-witness {"offset": 0, "path": ["\\rising_sclk_edge"], "smtname": 15, "smtoffset": 0, "type": "reg", "width": 1}
; yosys-smt2-output rising_sclk_edge 1
; yosys-smt2-register rising_sclk_edge 1
; yosys-smt2-wire rising_sclk_edge 1
(define-fun |SPISlave_n rising_sclk_edge| ((state |SPISlave_s|)) Bool (|SPISlave#15| state))
; yosys-smt2-witness {"offset": 0, "path": ["\\sclk"], "smtname": 16, "smtoffset": 0, "type": "reg", "width": 1}
; yosys-smt2-output sclk 1
; yosys-smt2-register sclk 1
; yosys-smt2-wire sclk 1
(define-fun |SPISlave_n sclk| ((state |SPISlave_s|)) Bool (|SPISlave#16| state))
; yosys-smt2-witness {"offset": 0, "path": ["\\sclk_d"], "smtname": 17, "smtoffset": 0, "type": "reg", "width": 1}
; yosys-smt2-register sclk_d 2
; yosys-smt2-wire sclk_d 2
(define-fun |SPISlave_n sclk_d 0| ((state |SPISlave_s|)) Bool (|SPISlave#17| state))
(define-fun |SPISlave_n sclk_d 1| ((state |SPISlave_s|)) Bool (|SPISlave#18| state))
; yosys-smt2-input sclk_in 1
; yosys-smt2-wire sclk_in 1
; yosys-smt2-witness {"offset": 0, "path": ["\\sclk_in"], "smtname": "sclk_in", "smtoffset": 0, "type": "input", "width": 1}
(define-fun |SPISlave_n sclk_in| ((state |SPISlave_s|)) Bool (|SPISlave#19| state))
; yosys-smt2-wire sclk_v 1
(define-fun |SPISlave_n sclk_v| ((state |SPISlave_s|)) Bool (|SPISlave#17| state))
; yosys-smt2-input send_item 8
; yosys-smt2-wire send_item 8
; yosys-smt2-witness {"offset": 0, "path": ["\\send_item"], "smtname": "send_item", "smtoffset": 0, "type": "input", "width": 8}
(define-fun |SPISlave_n send_item 0| ((state |SPISlave_s|)) Bool (|SPISlave#20| state))
(define-fun |SPISlave_n send_item 1| ((state |SPISlave_s|)) Bool (|SPISlave#21| state))
(define-fun |SPISlave_n send_item 2| ((state |SPISlave_s|)) Bool (|SPISlave#22| state))
(define-fun |SPISlave_n send_item 3| ((state |SPISlave_s|)) Bool (|SPISlave#23| state))
(define-fun |SPISlave_n send_item 4| ((state |SPISlave_s|)) Bool (|SPISlave#24| state))
(define-fun |SPISlave_n send_item 5| ((state |SPISlave_s|)) Bool (|SPISlave#25| state))
(define-fun |SPISlave_n send_item 6| ((state |SPISlave_s|)) Bool (|SPISlave#26| state))
(define-fun |SPISlave_n send_item 7| ((state |SPISlave_s|)) Bool (|SPISlave#27| state))
(define-fun |SPISlave#28| ((state |SPISlave_s|)) Bool (not (|SPISlave#1| state))) ; \ss
; yosys-smt2-output ss 1
; yosys-smt2-wire ss 1
(define-fun |SPISlave_n ss| ((state |SPISlave_s|)) Bool (|SPISlave#28| state))
; yosys-smt2-input ss_in 1
; yosys-smt2-wire ss_in 1
; yosys-smt2-witness {"offset": 0, "path": ["\\ss_in"], "smtname": "ss_in", "smtoffset": 0, "type": "input", "width": 1}
(define-fun |SPISlave_n ss_in| ((state |SPISlave_s|)) Bool (|SPISlave#29| state))
; yosys-smt2-witness {"offset": 0, "path": ["\\st"], "smtname": 30, "smtoffset": 0, "type": "reg", "width": 1}
; yosys-smt2-output st 1
; yosys-smt2-register st 1
; yosys-smt2-wire st 1
(define-fun |SPISlave_n st| ((state |SPISlave_s|)) Bool (|SPISlave#30| state))
; yosys-smt2-witness {"offset": 0, "path": ["\\start"], "smtname": 31, "smtoffset": 0, "type": "reg", "width": 1}
; yosys-smt2-output start 1
; yosys-smt2-register start 1
; yosys-smt2-wire start 1
(define-fun |SPISlave_n start| ((state |SPISlave_s|)) Bool (|SPISlave#31| state))
; yosys-smt2-witness {"offset": 0, "path": ["\\stutter_d"], "smtname": 32, "smtoffset": 0, "type": "reg", "width": 1}
; yosys-smt2-register stutter_d 2
; yosys-smt2-wire stutter_d 2
(define-fun |SPISlave_n stutter_d 0| ((state |SPISlave_s|)) Bool (|SPISlave#32| state))
(define-fun |SPISlave_n stutter_d 1| ((state |SPISlave_s|)) Bool (|SPISlave#33| state))
; yosys-smt2-input stutter_in 1
; yosys-smt2-wire stutter_in 1
; yosys-smt2-witness {"offset": 0, "path": ["\\stutter_in"], "smtname": "stutter_in", "smtoffset": 0, "type": "input", "width": 1}
(define-fun |SPISlave_n stutter_in| ((state |SPISlave_s|)) Bool (|SPISlave#34| state))
; yosys-smt2-wire stutter_v 1
(define-fun |SPISlave_n stutter_v| ((state |SPISlave_s|)) Bool (|SPISlave#32| state))
; yosys-smt2-witness {"offset": 0, "path": ["\\tx_buffer"], "smtname": 35, "smtoffset": 0, "type": "reg", "width": 1}
; yosys-smt2-witness {"offset": 0, "path": ["\\tx_buffer"], "smtname": 36, "smtoffset": 0, "type": "reg", "width": 1}
; yosys-smt2-witness {"offset": 0, "path": ["\\tx_buffer"], "smtname": 37, "smtoffset": 0, "type": "reg", "width": 1}
; yosys-smt2-witness {"offset": 0, "path": ["\\tx_buffer"], "smtname": 38, "smtoffset": 0, "type": "reg", "width": 1}
; yosys-smt2-witness {"offset": 0, "path": ["\\tx_buffer"], "smtname": 39, "smtoffset": 0, "type": "reg", "width": 1}
; yosys-smt2-witness {"offset": 0, "path": ["\\tx_buffer"], "smtname": 40, "smtoffset": 0, "type": "reg", "width": 1}
; yosys-smt2-witness {"offset": 0, "path": ["\\tx_buffer"], "smtname": 41, "smtoffset": 0, "type": "reg", "width": 1}
; yosys-smt2-witness {"offset": 0, "path": ["\\tx_buffer"], "smtname": 42, "smtoffset": 0, "type": "reg", "width": 1}
; yosys-smt2-register tx_buffer 8
; yosys-smt2-wire tx_buffer 8
(define-fun |SPISlave_n tx_buffer 0| ((state |SPISlave_s|)) Bool (|SPISlave#35| state))
(define-fun |SPISlave_n tx_buffer 1| ((state |SPISlave_s|)) Bool (|SPISlave#36| state))
(define-fun |SPISlave_n tx_buffer 2| ((state |SPISlave_s|)) Bool (|SPISlave#37| state))
(define-fun |SPISlave_n tx_buffer 3| ((state |SPISlave_s|)) Bool (|SPISlave#38| state))
(define-fun |SPISlave_n tx_buffer 4| ((state |SPISlave_s|)) Bool (|SPISlave#39| state))
(define-fun |SPISlave_n tx_buffer 5| ((state |SPISlave_s|)) Bool (|SPISlave#40| state))
(define-fun |SPISlave_n tx_buffer 6| ((state |SPISlave_s|)) Bool (|SPISlave#41| state))
(define-fun |SPISlave_n tx_buffer 7| ((state |SPISlave_s|)) Bool (|SPISlave#42| state))
; yosys-smt2-witness {"offset": 0, "path": ["\\tx_pos"], "smtname": 43, "smtoffset": 0, "type": "reg", "width": 1}
; yosys-smt2-witness {"offset": 0, "path": ["\\tx_pos"], "smtname": 44, "smtoffset": 0, "type": "reg", "width": 1}
; yosys-smt2-witness {"offset": 0, "path": ["\\tx_pos"], "smtname": 45, "smtoffset": 0, "type": "reg", "width": 1}
; yosys-smt2-witness {"offset": 0, "path": ["\\tx_pos"], "smtname": 46, "smtoffset": 0, "type": "reg", "width": 1}
; yosys-smt2-witness {"offset": 0, "path": ["\\tx_pos"], "smtname": 47, "smtoffset": 0, "type": "reg", "width": 1}
; yosys-smt2-register tx_pos 5
; yosys-smt2-wire tx_pos 5
(define-fun |SPISlave_n tx_pos 0| ((state |SPISlave_s|)) Bool (|SPISlave#43| state))
(define-fun |SPISlave_n tx_pos 1| ((state |SPISlave_s|)) Bool (|SPISlave#44| state))
(define-fun |SPISlave_n tx_pos 2| ((state |SPISlave_s|)) Bool (|SPISlave#45| state))
(define-fun |SPISlave_n tx_pos 3| ((state |SPISlave_s|)) Bool (|SPISlave#46| state))
(define-fun |SPISlave_n tx_pos 4| ((state |SPISlave_s|)) Bool (|SPISlave#47| state))
(define-fun |SPISlave#48| ((state |SPISlave_s|)) Bool (and (|SPISlave#0| state) (|SPISlave#47| state))) ; $abc$471$new_n104
(define-fun |SPISlave#49| ((state |SPISlave_s|)) Bool (ite (|SPISlave#4| state) (|SPISlave#48| state) (|SPISlave#47| state))) ; $abc$471$new_n105
(define-fun |SPISlave#50| ((state |SPISlave_s|)) Bool (ite (|SPISlave#2| state) (|SPISlave#49| state) (|SPISlave#47| state))) ; $abc$471$new_n106
(define-fun |SPISlave#51| ((state |SPISlave_s|)) Bool (ite (|SPISlave#32| state) (|SPISlave#47| state) (|SPISlave#50| state))) ; $procdff$133.D [4]
(define-fun |SPISlave#52| ((state |SPISlave_s|)) Bool (and (|SPISlave#0| state) (|SPISlave#46| state))) ; $abc$471$new_n100
(define-fun |SPISlave#53| ((state |SPISlave_s|)) Bool (ite (|SPISlave#4| state) (|SPISlave#52| state) (|SPISlave#46| state))) ; $abc$471$new_n101
(define-fun |SPISlave#54| ((state |SPISlave_s|)) Bool (ite (|SPISlave#2| state) (|SPISlave#53| state) (|SPISlave#46| state))) ; $abc$471$new_n102
(define-fun |SPISlave#55| ((state |SPISlave_s|)) Bool (ite (|SPISlave#32| state) (|SPISlave#46| state) (|SPISlave#54| state))) ; $procdff$133.D [3]
(define-fun |SPISlave#56| ((state |SPISlave_s|)) Bool (not (and (|SPISlave#44| state) (|SPISlave#43| state)))) ; $abc$471$new_n94
(define-fun |SPISlave#57| ((state |SPISlave_s|)) Bool (not (|SPISlave#45| state))) ; $abc$471$new_n93
(define-fun |SPISlave#58| ((state |SPISlave_s|)) Bool (xor (|SPISlave#56| state) (|SPISlave#57| state))) ; $abc$471$new_n95
(define-fun |SPISlave#59| ((state |SPISlave_s|)) Bool (ite (|SPISlave#0| state) (|SPISlave#45| state) (|SPISlave#58| state))) ; $abc$471$new_n96
(define-fun |SPISlave#60| ((state |SPISlave_s|)) Bool (ite (|SPISlave#4| state) (|SPISlave#59| state) (|SPISlave#45| state))) ; $abc$471$new_n97
(define-fun |SPISlave#61| ((state |SPISlave_s|)) Bool (ite (|SPISlave#2| state) (|SPISlave#60| state) (|SPISlave#45| state))) ; $abc$471$new_n98
(define-fun |SPISlave#62| ((state |SPISlave_s|)) Bool (ite (|SPISlave#32| state) (|SPISlave#45| state) (|SPISlave#61| state))) ; $procdff$133.D [2]
(define-fun |SPISlave#63| ((state |SPISlave_s|)) Bool (xor (|SPISlave#44| state) (|SPISlave#43| state))) ; $abc$471$new_n88
(define-fun |SPISlave#64| ((state |SPISlave_s|)) Bool (ite (|SPISlave#0| state) (|SPISlave#44| state) (|SPISlave#63| state))) ; $abc$471$new_n89
(define-fun |SPISlave#65| ((state |SPISlave_s|)) Bool (ite (|SPISlave#4| state) (|SPISlave#64| state) (|SPISlave#44| state))) ; $abc$471$new_n90
(define-fun |SPISlave#66| ((state |SPISlave_s|)) Bool (ite (|SPISlave#2| state) (|SPISlave#65| state) (|SPISlave#44| state))) ; $abc$471$new_n91
(define-fun |SPISlave#67| ((state |SPISlave_s|)) Bool (ite (|SPISlave#32| state) (|SPISlave#44| state) (|SPISlave#66| state))) ; $procdff$133.D [1]
(define-fun |SPISlave#68| ((state |SPISlave_s|)) Bool (not (xor (|SPISlave#0| state) (|SPISlave#43| state)))) ; $abc$471$new_n84
(define-fun |SPISlave#69| ((state |SPISlave_s|)) Bool (ite (|SPISlave#4| state) (|SPISlave#68| state) (|SPISlave#43| state))) ; $abc$471$new_n85
(define-fun |SPISlave#70| ((state |SPISlave_s|)) Bool (ite (|SPISlave#2| state) (|SPISlave#69| state) (|SPISlave#43| state))) ; $abc$471$new_n86
(define-fun |SPISlave#71| ((state |SPISlave_s|)) Bool (ite (|SPISlave#32| state) (|SPISlave#43| state) (|SPISlave#70| state))) ; $procdff$133.D [0]
(define-fun |SPISlave#72| ((state |SPISlave_s|)) Bool (ite (|SPISlave#11| state) (|SPISlave#42| state) (|SPISlave#27| state))) ; $procdff$112.D [7]
(define-fun |SPISlave#73| ((state |SPISlave_s|)) Bool (ite (|SPISlave#11| state) (|SPISlave#41| state) (|SPISlave#26| state))) ; $procdff$112.D [6]
(define-fun |SPISlave#74| ((state |SPISlave_s|)) Bool (ite (|SPISlave#11| state) (|SPISlave#40| state) (|SPISlave#25| state))) ; $procdff$112.D [5]
(define-fun |SPISlave#75| ((state |SPISlave_s|)) Bool (ite (|SPISlave#11| state) (|SPISlave#39| state) (|SPISlave#24| state))) ; $procdff$112.D [4]
(define-fun |SPISlave#76| ((state |SPISlave_s|)) Bool (ite (|SPISlave#11| state) (|SPISlave#38| state) (|SPISlave#23| state))) ; $procdff$112.D [3]
(define-fun |SPISlave#77| ((state |SPISlave_s|)) Bool (ite (|SPISlave#11| state) (|SPISlave#37| state) (|SPISlave#22| state))) ; $procdff$112.D [2]
(define-fun |SPISlave#78| ((state |SPISlave_s|)) Bool (ite (|SPISlave#11| state) (|SPISlave#36| state) (|SPISlave#21| state))) ; $procdff$112.D [1]
(define-fun |SPISlave#79| ((state |SPISlave_s|)) Bool (ite (|SPISlave#11| state) (|SPISlave#35| state) (|SPISlave#20| state))) ; $procdff$112.D [0]
(define-fun |SPISlave#80| ((state |SPISlave_s|)) Bool (and (|SPISlave#2| state) (not (|SPISlave#12| state)))) ; $abc$471$new_n118
(define-fun |SPISlave#81| ((state |SPISlave_s|)) Bool (ite (|SPISlave#32| state) (|SPISlave#31| state) (|SPISlave#80| state))) ; $procdff$121.D
(define-fun |SPISlave#82| ((state |SPISlave_s|)) Bool (and (|SPISlave#30| state) (|SPISlave#32| state))) ; $procdff$118.D
(define-fun |SPISlave#83| ((state |SPISlave_s|)) Bool (ite (|SPISlave#32| state) (|SPISlave#17| state) (|SPISlave#19| state))) ; $procdff$125.D [0]
(define-fun |SPISlave#84| ((state |SPISlave_s|)) Bool (ite (|SPISlave#32| state) (|SPISlave#16| state) (|SPISlave#17| state))) ; $procdff$116.D
(define-fun |SPISlave#85| ((state |SPISlave_s|)) Bool (ite (|SPISlave#32| state) (|SPISlave#15| state) (|SPISlave#14| state))) ; $procdff$119.D
(define-fun |SPISlave#86| ((state |SPISlave_s|)) Bool (and (|SPISlave#19| state) (not (|SPISlave#13| state)))) ; $abc$471$new_n116
(define-fun |SPISlave#87| ((state |SPISlave_s|)) Bool (ite (|SPISlave#32| state) (|SPISlave#14| state) (|SPISlave#86| state))) ; $procdff$122.D
(define-fun |SPISlave#88| ((state |SPISlave_s|)) Bool (ite (|SPISlave#32| state) (|SPISlave#13| state) (|SPISlave#19| state))) ; $procdff$124.D
(define-fun |SPISlave#89| ((state |SPISlave_s|)) Bool (ite (|SPISlave#32| state) (|SPISlave#12| state) (|SPISlave#2| state))) ; $procdff$132.D
(define-fun |SPISlave#90| ((state |SPISlave_s|)) Bool (ite (|SPISlave#32| state) (|SPISlave#8| state) (|SPISlave#10| state))) ; $procdff$126.D [0]
(define-fun |SPISlave#91| ((state |SPISlave_s|)) Bool (ite (|SPISlave#32| state) (|SPISlave#7| state) (|SPISlave#8| state))) ; $procdff$117.D
(define-fun |SPISlave#92| ((state |SPISlave_s|)) Bool (ite (|SPISlave#43| state) (|SPISlave#42| state) (|SPISlave#41| state))) ; $abc$471$new_n136
(define-fun |SPISlave#93| ((state |SPISlave_s|)) Bool (ite (|SPISlave#43| state) (|SPISlave#40| state) (|SPISlave#39| state))) ; $abc$471$new_n135
(define-fun |SPISlave#94| ((state |SPISlave_s|)) Bool (ite (|SPISlave#44| state) (|SPISlave#92| state) (|SPISlave#93| state))) ; $abc$471$new_n137
(define-fun |SPISlave#95| ((state |SPISlave_s|)) Bool (ite (|SPISlave#43| state) (|SPISlave#38| state) (|SPISlave#37| state))) ; $abc$471$new_n133
(define-fun |SPISlave#96| ((state |SPISlave_s|)) Bool (ite (|SPISlave#43| state) (|SPISlave#36| state) (|SPISlave#35| state))) ; $abc$471$new_n132
(define-fun |SPISlave#97| ((state |SPISlave_s|)) Bool (ite (|SPISlave#44| state) (|SPISlave#95| state) (|SPISlave#96| state))) ; $abc$471$new_n134
(define-fun |SPISlave#98| ((state |SPISlave_s|)) Bool (ite (|SPISlave#45| state) (|SPISlave#94| state) (|SPISlave#97| state))) ; $abc$471$new_n138
(define-fun |SPISlave#99| ((state |SPISlave_s|)) Bool (ite (|SPISlave#0| state) (|SPISlave#6| state) (|SPISlave#98| state))) ; $abc$471$new_n139
(define-fun |SPISlave#100| ((state |SPISlave_s|)) Bool (ite (|SPISlave#4| state) (|SPISlave#99| state) (|SPISlave#6| state))) ; $abc$471$new_n140
(define-fun |SPISlave#101| ((state |SPISlave_s|)) Bool (ite (|SPISlave#2| state) (|SPISlave#100| state) (|SPISlave#6| state))) ; $abc$471$new_n141
(define-fun |SPISlave#102| ((state |SPISlave_s|)) Bool (ite (|SPISlave#32| state) (|SPISlave#6| state) (|SPISlave#101| state))) ; $procdff$114.D
(define-fun |SPISlave#103| ((state |SPISlave_s|)) Bool (ite (|SPISlave#32| state) (|SPISlave#5| state) (|SPISlave#4| state))) ; $procdff$120.D
(define-fun |SPISlave#104| ((state |SPISlave_s|)) Bool (and (|SPISlave#13| state) (not (|SPISlave#19| state)))) ; $abc$471$new_n114
(define-fun |SPISlave#105| ((state |SPISlave_s|)) Bool (ite (|SPISlave#32| state) (|SPISlave#4| state) (|SPISlave#104| state))) ; $procdff$123.D
(define-fun |SPISlave#106| ((state |SPISlave_s|)) Bool (not (|SPISlave#29| state))) ; $abc$471$new_n109
(define-fun |SPISlave#107| ((state |SPISlave_s|)) Bool (ite (|SPISlave#32| state) (|SPISlave#2| state) (|SPISlave#106| state))) ; $procdff$127.D [0]
(define-fun |SPISlave#108| ((state |SPISlave_s|)) Bool (ite (|SPISlave#32| state) (|SPISlave#1| state) (|SPISlave#2| state))) ; $procdff$134.D
(define-fun |SPISlave#109| ((state |SPISlave_s|)) Bool (or (|SPISlave#46| state) (not (|SPISlave#45| state)))) ; $abc$471$new_n124
(define-fun |SPISlave#110| ((state |SPISlave_s|)) Bool (not (or (|SPISlave#109| state) (|SPISlave#56| state)))) ; $abc$471$new_n125
(define-fun |SPISlave#111| ((state |SPISlave_s|)) Bool (and (|SPISlave#110| state) (not (|SPISlave#47| state)))) ; $abc$471$new_n126
(define-fun |SPISlave#112| ((state |SPISlave_s|)) Bool (or (|SPISlave#111| state) (|SPISlave#0| state))) ; $abc$471$new_n127
(define-fun |SPISlave#113| ((state |SPISlave_s|)) Bool (ite (|SPISlave#4| state) (|SPISlave#112| state) (|SPISlave#0| state))) ; $abc$471$new_n128
(define-fun |SPISlave#114| ((state |SPISlave_s|)) Bool (not (|SPISlave#2| state))) ; $abc$471$new_n82
(define-fun |SPISlave#115| ((state |SPISlave_s|)) Bool (and (|SPISlave#113| state) (not (|SPISlave#114| state)))) ; $abc$471$new_n129
(define-fun |SPISlave#116| ((state |SPISlave_s|)) Bool (ite (|SPISlave#32| state) (|SPISlave#0| state) (|SPISlave#115| state))) ; $procdff$115.D
(define-fun |SPISlave_a| ((state |SPISlave_s|)) Bool true)
(define-fun |SPISlave_u| ((state |SPISlave_s|)) Bool true)
(define-fun |SPISlave_i| ((state |SPISlave_s|)) Bool (and
  (= (|SPISlave#0| state) false) ; byte_transfered
  (= (|SPISlave#1| state) false) ; en
  (= (|SPISlave#2| state) false) ; en_d
  (= (|SPISlave#4| state) false) ; falling_edge
  (= (|SPISlave#5| state) false) ; falling_sclk_edge
  (= (|SPISlave#6| state) false) ; miso
  (= (|SPISlave#7| state) false) ; mosi
  (= (|SPISlave#8| state) false) ; mosi_d
  (= (|SPISlave#11| state) false) ; not_first_cycle
  (= (|SPISlave#12| state) false) ; prev_en
  (= (|SPISlave#13| state) false) ; prev_sclk
  (= (|SPISlave#14| state) false) ; rising_edge
  (= (|SPISlave#15| state) false) ; rising_sclk_edge
  (= (|SPISlave#16| state) false) ; sclk
  (= (|SPISlave#17| state) false) ; sclk_d
  (= (|SPISlave#30| state) false) ; st
  (= (|SPISlave#31| state) false) ; start
  (= (|SPISlave#32| state) false) ; stutter_d
  (= (|SPISlave#35| state) false) ; tx_buffer
  (= (|SPISlave#36| state) false) ; tx_buffer
  (= (|SPISlave#37| state) false) ; tx_buffer
  (= (|SPISlave#38| state) false) ; tx_buffer
  (= (|SPISlave#39| state) false) ; tx_buffer
  (= (|SPISlave#40| state) false) ; tx_buffer
  (= (|SPISlave#41| state) false) ; tx_buffer
  (= (|SPISlave#42| state) false) ; tx_buffer
  (= (|SPISlave#43| state) false) ; tx_pos
  (= (|SPISlave#44| state) false) ; tx_pos
  (= (|SPISlave#45| state) false) ; tx_pos
  (= (|SPISlave#46| state) false) ; tx_pos
  (= (|SPISlave#47| state) false) ; tx_pos
))
(define-fun |SPISlave_h| ((state |SPISlave_s|)) Bool true)
(define-fun |SPISlave_t| ((state |SPISlave_s|) (next_state |SPISlave_s|)) Bool (and
  (= (|SPISlave#51| state) (|SPISlave#47| next_state)) ; $auto$ff.cc:266:slice$400 \tx_pos [4]
  (= (|SPISlave#55| state) (|SPISlave#46| next_state)) ; $auto$ff.cc:266:slice$399 \tx_pos [3]
  (= (|SPISlave#62| state) (|SPISlave#45| next_state)) ; $auto$ff.cc:266:slice$398 \tx_pos [2]
  (= (|SPISlave#67| state) (|SPISlave#44| next_state)) ; $auto$ff.cc:266:slice$397 \tx_pos [1]
  (= (|SPISlave#71| state) (|SPISlave#43| next_state)) ; $auto$ff.cc:266:slice$396 \tx_pos [0]
  (= (|SPISlave#72| state) (|SPISlave#42| next_state)) ; $auto$ff.cc:266:slice$369 \tx_buffer [7]
  (= (|SPISlave#73| state) (|SPISlave#41| next_state)) ; $auto$ff.cc:266:slice$368 \tx_buffer [6]
  (= (|SPISlave#74| state) (|SPISlave#40| next_state)) ; $auto$ff.cc:266:slice$367 \tx_buffer [5]
  (= (|SPISlave#75| state) (|SPISlave#39| next_state)) ; $auto$ff.cc:266:slice$366 \tx_buffer [4]
  (= (|SPISlave#76| state) (|SPISlave#38| next_state)) ; $auto$ff.cc:266:slice$365 \tx_buffer [3]
  (= (|SPISlave#77| state) (|SPISlave#37| next_state)) ; $auto$ff.cc:266:slice$364 \tx_buffer [2]
  (= (|SPISlave#78| state) (|SPISlave#36| next_state)) ; $auto$ff.cc:266:slice$363 \tx_buffer [1]
  (= (|SPISlave#79| state) (|SPISlave#35| next_state)) ; $auto$ff.cc:266:slice$362 \tx_buffer [0]
  (= (|SPISlave#34| state) (|SPISlave#32| next_state)) ; $auto$ff.cc:266:slice$393 \stutter_d [0]
  (= (|SPISlave#81| state) (|SPISlave#31| next_state)) ; $auto$ff.cc:266:slice$383 \start
  (= (|SPISlave#82| state) (|SPISlave#30| next_state)) ; $auto$ff.cc:266:slice$380 \st
  (= (|SPISlave#83| state) (|SPISlave#17| next_state)) ; $auto$ff.cc:266:slice$387 \sclk_d [0]
  (= (|SPISlave#84| state) (|SPISlave#16| next_state)) ; $auto$ff.cc:266:slice$378 \sclk
  (= (|SPISlave#85| state) (|SPISlave#15| next_state)) ; $auto$ff.cc:266:slice$381 \rising_sclk_edge
  (= (|SPISlave#87| state) (|SPISlave#14| next_state)) ; $auto$ff.cc:266:slice$384 \rising_edge
  (= (|SPISlave#88| state) (|SPISlave#13| next_state)) ; $auto$ff.cc:266:slice$386 \prev_sclk
  (= (|SPISlave#89| state) (|SPISlave#12| next_state)) ; $auto$ff.cc:266:slice$395 \prev_en
  (= true (|SPISlave#11| next_state)) ; $auto$ff.cc:266:slice$375 \not_first_cycle
  (= (|SPISlave#90| state) (|SPISlave#8| next_state)) ; $auto$ff.cc:266:slice$389 \mosi_d [0]
  (= (|SPISlave#91| state) (|SPISlave#7| next_state)) ; $auto$ff.cc:266:slice$379 \mosi
  (= (|SPISlave#102| state) (|SPISlave#6| next_state)) ; $auto$ff.cc:266:slice$376 \miso
  (= (|SPISlave#103| state) (|SPISlave#5| next_state)) ; $auto$ff.cc:266:slice$382 \falling_sclk_edge
  (= (|SPISlave#105| state) (|SPISlave#4| next_state)) ; $auto$ff.cc:266:slice$385 \falling_edge
  (= (|SPISlave#107| state) (|SPISlave#2| next_state)) ; $auto$ff.cc:266:slice$391 \en_d [0]
  (= (|SPISlave#108| state) (|SPISlave#1| next_state)) ; $auto$ff.cc:266:slice$401 \en
  (= (|SPISlave#116| state) (|SPISlave#0| next_state)) ; $auto$ff.cc:266:slice$377 \byte_transfered
)) ; end of module SPISlave
; yosys-smt2-topmod SPISlave
; end of yosys output
